(set-info :category "industrial")
(set-info :status sat)
(declare-fun x01 () (_ BitVec 8))
(declare-fun x03 () (_ BitVec 8))
(declare-fun x04 () (_ BitVec 8))
(declare-fun x05 () (_ BitVec 8))
(declare-fun x07 () (_ BitVec 8))
(declare-fun x10 () (_ BitVec 8))
(declare-fun x13 () (_ BitVec 8))
(declare-fun x15 () (_ BitVec 8))
(declare-fun x16 () (_ BitVec 8))
(declare-fun x17 () (_ BitVec 8))
(declare-fun x18 () (_ BitVec 8))
(declare-fun x20 () (_ BitVec 8))
(declare-fun x22 () (_ BitVec 8))
(declare-fun x25 () (_ BitVec 8))
(declare-fun x26 () (_ BitVec 8))
(declare-fun x28 () (_ BitVec 8))
(declare-fun x31 () (_ BitVec 8))
(declare-fun x34 () (_ BitVec 8))
(declare-fun x36 () (_ BitVec 8))
(declare-fun x38 () (_ BitVec 8))
(declare-fun x40 () (_ BitVec 8))
(declare-fun x41 () (_ BitVec 8))
(declare-fun x42 () (_ BitVec 8))
(declare-fun x43 () (_ BitVec 8))
(declare-fun x45 () (_ BitVec 8))
(declare-fun x46 () (_ BitVec 8))
(declare-fun x48 () (_ BitVec 8))
(declare-fun x50 () (_ BitVec 8))
(declare-fun x53 () (_ BitVec 8))
(declare-fun x54 () (_ BitVec 8))
(declare-fun x58 () (_ BitVec 8))
(declare-fun x60 () (_ BitVec 8))
(declare-fun x62 () (_ BitVec 8))
(declare-fun x64 () (_ BitVec 8))
(declare-fun x67 () (_ BitVec 8))
(declare-fun x70 () (_ BitVec 8))
(declare-fun x71 () (_ BitVec 8))
(declare-fun x75 () (_ BitVec 8))
(declare-fun x78 () (_ BitVec 8))
(declare-fun x81 () (_ BitVec 8))
(declare-fun x82 () (_ BitVec 8))
(declare-fun x83 () (_ BitVec 8))
(declare-fun x84 () (_ BitVec 8))
(declare-fun x85 () (_ BitVec 8))
(declare-fun x86 () (_ BitVec 8))
(declare-fun x87 () (_ BitVec 8))
(declare-fun x88 () (_ BitVec 8))
(assert (bvult x01 (_ bv9 8)))
(assert (bvult x03 (_ bv9 8)))
(assert (bvult x04 (_ bv9 8)))
(assert (bvult x05 (_ bv9 8)))
(assert (bvult x07 (_ bv9 8)))
(assert (bvult x10 (_ bv9 8)))
(assert (bvult x13 (_ bv9 8)))
(assert (bvult x15 (_ bv9 8)))
(assert (bvult x16 (_ bv9 8)))
(assert (bvult x17 (_ bv9 8)))
(assert (bvult x18 (_ bv9 8)))
(assert (bvult x20 (_ bv9 8)))
(assert (bvult x22 (_ bv9 8)))
(assert (bvult x25 (_ bv9 8)))
(assert (bvult x26 (_ bv9 8)))
(assert (bvult x28 (_ bv9 8)))
(assert (bvult x31 (_ bv9 8)))
(assert (bvult x34 (_ bv9 8)))
(assert (bvult x36 (_ bv9 8)))
(assert (bvult x38 (_ bv9 8)))
(assert (bvult x40 (_ bv9 8)))
(assert (bvult x41 (_ bv9 8)))
(assert (bvult x42 (_ bv9 8)))
(assert (bvult x43 (_ bv9 8)))
(assert (bvult x45 (_ bv9 8)))
(assert (bvult x46 (_ bv9 8)))
(assert (bvult x48 (_ bv9 8)))
(assert (bvult x50 (_ bv9 8)))
(assert (bvult x53 (_ bv9 8)))
(assert (bvult x54 (_ bv9 8)))
(assert (bvult x58 (_ bv9 8)))
(assert (bvult x60 (_ bv9 8)))
(assert (bvult x62 (_ bv9 8)))
(assert (bvult x64 (_ bv9 8)))
(assert (bvult x67 (_ bv9 8)))
(assert (bvult x70 (_ bv9 8)))
(assert (bvult x71 (_ bv9 8)))
(assert (bvult x75 (_ bv9 8)))
(assert (bvult x78 (_ bv9 8)))
(assert (bvult x81 (_ bv9 8)))
(assert (bvult x82 (_ bv9 8)))
(assert (bvult x83 (_ bv9 8)))
(assert (bvult x84 (_ bv9 8)))
(assert (bvult x85 (_ bv9 8)))
(assert (bvult x86 (_ bv9 8)))
(assert (bvult x87 (_ bv9 8)))
(assert (bvult x88 (_ bv9 8)))
(assert (not (= (_ bv9 8) x01)))
(assert (not (= (_ bv9 8) (_ bv8 8))))
(assert (not (= (_ bv9 8) x03)))
(assert (not (= (_ bv9 8) x04)))
(assert (not (= (_ bv9 8) x05)))
(assert (not (= (_ bv9 8) (_ bv1 8))))
(assert (not (= (_ bv9 8) x07)))
(assert (not (= (_ bv9 8) (_ bv3 8))))
(assert (not (= x01 (_ bv8 8))))
(assert (not (= x01 x03)))
(assert (not (= x01 x04)))
(assert (not (= x01 x05)))
(assert (not (= x01 (_ bv1 8))))
(assert (not (= x01 x07)))
(assert (not (= x01 (_ bv3 8))))
(assert (not (= (_ bv8 8) x03)))
(assert (not (= (_ bv8 8) x04)))
(assert (not (= (_ bv8 8) x05)))
(assert (not (= (_ bv8 8) (_ bv1 8))))
(assert (not (= (_ bv8 8) x07)))
(assert (not (= (_ bv8 8) (_ bv3 8))))
(assert (not (= x03 x04)))
(assert (not (= x03 x05)))
(assert (not (= x03 (_ bv1 8))))
(assert (not (= x03 x07)))
(assert (not (= x03 (_ bv3 8))))
(assert (not (= x04 x05)))
(assert (not (= x04 (_ bv1 8))))
(assert (not (= x04 x07)))
(assert (not (= x04 (_ bv3 8))))
(assert (not (= x05 (_ bv1 8))))
(assert (not (= x05 x07)))
(assert (not (= x05 (_ bv3 8))))
(assert (not (= (_ bv1 8) x07)))
(assert (not (= (_ bv1 8) (_ bv3 8))))
(assert (not (= x07 (_ bv3 8))))
(assert (not (= x10 (_ bv4 8))))
(assert (not (= x10 (_ bv5 8))))
(assert (not (= x10 x13)))
(assert (not (= x10 (_ bv2 8))))
(assert (not (= x10 x15)))
(assert (not (= x10 x16)))
(assert (not (= x10 x17)))
(assert (not (= x10 x18)))
(assert (not (= (_ bv4 8) (_ bv5 8))))
(assert (not (= (_ bv4 8) x13)))
(assert (not (= (_ bv4 8) (_ bv2 8))))
(assert (not (= (_ bv4 8) x15)))
(assert (not (= (_ bv4 8) x16)))
(assert (not (= (_ bv4 8) x17)))
(assert (not (= (_ bv4 8) x18)))
(assert (not (= (_ bv5 8) x13)))
(assert (not (= (_ bv5 8) (_ bv2 8))))
(assert (not (= (_ bv5 8) x15)))
(assert (not (= (_ bv5 8) x16)))
(assert (not (= (_ bv5 8) x17)))
(assert (not (= (_ bv5 8) x18)))
(assert (not (= x13 (_ bv2 8))))
(assert (not (= x13 x15)))
(assert (not (= x13 x16)))
(assert (not (= x13 x17)))
(assert (not (= x13 x18)))
(assert (not (= (_ bv2 8) x15)))
(assert (not (= (_ bv2 8) x16)))
(assert (not (= (_ bv2 8) x17)))
(assert (not (= (_ bv2 8) x18)))
(assert (not (= x15 x16)))
(assert (not (= x15 x17)))
(assert (not (= x15 x18)))
(assert (not (= x16 x17)))
(assert (not (= x16 x18)))
(assert (not (= x17 x18)))
(assert (not (= x20 (_ bv7 8))))
(assert (not (= x20 x22)))
(assert (not (= x20 (_ bv3 8))))
(assert (not (= x20 (_ bv8 8))))
(assert (not (= x20 x25)))
(assert (not (= x20 x26)))
(assert (not (= x20 (_ bv9 8))))
(assert (not (= x20 x28)))
(assert (not (= (_ bv7 8) x22)))
(assert (not (= (_ bv7 8) (_ bv3 8))))
(assert (not (= (_ bv7 8) (_ bv8 8))))
(assert (not (= (_ bv7 8) x25)))
(assert (not (= (_ bv7 8) x26)))
(assert (not (= (_ bv7 8) (_ bv9 8))))
(assert (not (= (_ bv7 8) x28)))
(assert (not (= x22 (_ bv3 8))))
(assert (not (= x22 (_ bv8 8))))
(assert (not (= x22 x25)))
(assert (not (= x22 x26)))
(assert (not (= x22 (_ bv9 8))))
(assert (not (= x22 x28)))
(assert (not (= (_ bv3 8) (_ bv8 8))))
(assert (not (= (_ bv3 8) x25)))
(assert (not (= (_ bv3 8) x26)))
(assert (not (= (_ bv3 8) (_ bv9 8))))
(assert (not (= (_ bv3 8) x28)))
(assert (not (= (_ bv8 8) x25)))
(assert (not (= (_ bv8 8) x26)))
(assert (not (= (_ bv8 8) (_ bv9 8))))
(assert (not (= (_ bv8 8) x28)))
(assert (not (= x25 x26)))
(assert (not (= x25 (_ bv9 8))))
(assert (not (= x25 x28)))
(assert (not (= x26 (_ bv9 8))))
(assert (not (= x26 x28)))
(assert (not (= (_ bv9 8) x28)))
(assert (not (= (_ bv1 8) x31)))
(assert (not (= (_ bv1 8) (_ bv6 8))))
(assert (not (= (_ bv1 8) (_ bv7 8))))
(assert (not (= (_ bv1 8) x34)))
(assert (not (= (_ bv1 8) (_ bv9 8))))
(assert (not (= (_ bv1 8) x36)))
(assert (not (= (_ bv1 8) (_ bv8 8))))
(assert (not (= (_ bv1 8) x38)))
(assert (not (= x31 (_ bv6 8))))
(assert (not (= x31 (_ bv7 8))))
(assert (not (= x31 x34)))
(assert (not (= x31 (_ bv9 8))))
(assert (not (= x31 x36)))
(assert (not (= x31 (_ bv8 8))))
(assert (not (= x31 x38)))
(assert (not (= (_ bv6 8) (_ bv7 8))))
(assert (not (= (_ bv6 8) x34)))
(assert (not (= (_ bv6 8) (_ bv9 8))))
(assert (not (= (_ bv6 8) x36)))
(assert (not (= (_ bv6 8) (_ bv8 8))))
(assert (not (= (_ bv6 8) x38)))
(assert (not (= (_ bv7 8) x34)))
(assert (not (= (_ bv7 8) (_ bv9 8))))
(assert (not (= (_ bv7 8) x36)))
(assert (not (= (_ bv7 8) (_ bv8 8))))
(assert (not (= (_ bv7 8) x38)))
(assert (not (= x34 (_ bv9 8))))
(assert (not (= x34 x36)))
(assert (not (= x34 (_ bv8 8))))
(assert (not (= x34 x38)))
(assert (not (= (_ bv9 8) x36)))
(assert (not (= (_ bv9 8) (_ bv8 8))))
(assert (not (= (_ bv9 8) x38)))
(assert (not (= x36 (_ bv8 8))))
(assert (not (= x36 x38)))
(assert (not (= (_ bv8 8) x38)))
(assert (not (= x40 x41)))
(assert (not (= x40 x42)))
(assert (not (= x40 x43)))
(assert (not (= x40 (_ bv5 8))))
(assert (not (= x40 x45)))
(assert (not (= x40 x46)))
(assert (not (= x40 (_ bv7 8))))
(assert (not (= x40 x48)))
(assert (not (= x41 x42)))
(assert (not (= x41 x43)))
(assert (not (= x41 (_ bv5 8))))
(assert (not (= x41 x45)))
(assert (not (= x41 x46)))
(assert (not (= x41 (_ bv7 8))))
(assert (not (= x41 x48)))
(assert (not (= x42 x43)))
(assert (not (= x42 (_ bv5 8))))
(assert (not (= x42 x45)))
(assert (not (= x42 x46)))
(assert (not (= x42 (_ bv7 8))))
(assert (not (= x42 x48)))
(assert (not (= x43 (_ bv5 8))))
(assert (not (= x43 x45)))
(assert (not (= x43 x46)))
(assert (not (= x43 (_ bv7 8))))
(assert (not (= x43 x48)))
(assert (not (= (_ bv5 8) x45)))
(assert (not (= (_ bv5 8) x46)))
(assert (not (= (_ bv5 8) (_ bv7 8))))
(assert (not (= (_ bv5 8) x48)))
(assert (not (= x45 x46)))
(assert (not (= x45 (_ bv7 8))))
(assert (not (= x45 x48)))
(assert (not (= x46 (_ bv7 8))))
(assert (not (= x46 x48)))
(assert (not (= (_ bv7 8) x48)))
(assert (not (= x50 (_ bv2 8))))
(assert (not (= x50 (_ bv9 8))))
(assert (not (= x50 x53)))
(assert (not (= x50 x54)))
(assert (not (= x50 (_ bv3 8))))
(assert (not (= x50 (_ bv4 8))))
(assert (not (= x50 (_ bv5 8))))
(assert (not (= x50 x58)))
(assert (not (= (_ bv2 8) (_ bv9 8))))
(assert (not (= (_ bv2 8) x53)))
(assert (not (= (_ bv2 8) x54)))
(assert (not (= (_ bv2 8) (_ bv3 8))))
(assert (not (= (_ bv2 8) (_ bv4 8))))
(assert (not (= (_ bv2 8) (_ bv5 8))))
(assert (not (= (_ bv2 8) x58)))
(assert (not (= (_ bv9 8) x53)))
(assert (not (= (_ bv9 8) x54)))
(assert (not (= (_ bv9 8) (_ bv3 8))))
(assert (not (= (_ bv9 8) (_ bv4 8))))
(assert (not (= (_ bv9 8) (_ bv5 8))))
(assert (not (= (_ bv9 8) x58)))
(assert (not (= x53 x54)))
(assert (not (= x53 (_ bv3 8))))
(assert (not (= x53 (_ bv4 8))))
(assert (not (= x53 (_ bv5 8))))
(assert (not (= x53 x58)))
(assert (not (= x54 (_ bv3 8))))
(assert (not (= x54 (_ bv4 8))))
(assert (not (= x54 (_ bv5 8))))
(assert (not (= x54 x58)))
(assert (not (= (_ bv3 8) (_ bv4 8))))
(assert (not (= (_ bv3 8) (_ bv5 8))))
(assert (not (= (_ bv3 8) x58)))
(assert (not (= (_ bv4 8) (_ bv5 8))))
(assert (not (= (_ bv4 8) x58)))
(assert (not (= (_ bv5 8) x58)))
(assert (not (= x60 (_ bv1 8))))
(assert (not (= x60 x62)))
(assert (not (= x60 (_ bv2 8))))
(assert (not (= x60 x64)))
(assert (not (= x60 (_ bv7 8))))
(assert (not (= x60 (_ bv6 8))))
(assert (not (= x60 x67)))
(assert (not (= x60 (_ bv8 8))))
(assert (not (= (_ bv1 8) x62)))
(assert (not (= (_ bv1 8) (_ bv2 8))))
(assert (not (= (_ bv1 8) x64)))
(assert (not (= (_ bv1 8) (_ bv7 8))))
(assert (not (= (_ bv1 8) (_ bv6 8))))
(assert (not (= (_ bv1 8) x67)))
(assert (not (= (_ bv1 8) (_ bv8 8))))
(assert (not (= x62 (_ bv2 8))))
(assert (not (= x62 x64)))
(assert (not (= x62 (_ bv7 8))))
(assert (not (= x62 (_ bv6 8))))
(assert (not (= x62 x67)))
(assert (not (= x62 (_ bv8 8))))
(assert (not (= (_ bv2 8) x64)))
(assert (not (= (_ bv2 8) (_ bv7 8))))
(assert (not (= (_ bv2 8) (_ bv6 8))))
(assert (not (= (_ bv2 8) x67)))
(assert (not (= (_ bv2 8) (_ bv8 8))))
(assert (not (= x64 (_ bv7 8))))
(assert (not (= x64 (_ bv6 8))))
(assert (not (= x64 x67)))
(assert (not (= x64 (_ bv8 8))))
(assert (not (= (_ bv7 8) (_ bv6 8))))
(assert (not (= (_ bv7 8) x67)))
(assert (not (= (_ bv7 8) (_ bv8 8))))
(assert (not (= (_ bv6 8) x67)))
(assert (not (= (_ bv6 8) (_ bv8 8))))
(assert (not (= x67 (_ bv8 8))))
(assert (not (= x70 x71)))
(assert (not (= x70 (_ bv7 8))))
(assert (not (= x70 (_ bv1 8))))
(assert (not (= x70 (_ bv6 8))))
(assert (not (= x70 x75)))
(assert (not (= x70 (_ bv2 8))))
(assert (not (= x70 (_ bv4 8))))
(assert (not (= x70 x78)))
(assert (not (= x71 (_ bv7 8))))
(assert (not (= x71 (_ bv1 8))))
(assert (not (= x71 (_ bv6 8))))
(assert (not (= x71 x75)))
(assert (not (= x71 (_ bv2 8))))
(assert (not (= x71 (_ bv4 8))))
(assert (not (= x71 x78)))
(assert (not (= (_ bv7 8) (_ bv1 8))))
(assert (not (= (_ bv7 8) (_ bv6 8))))
(assert (not (= (_ bv7 8) x75)))
(assert (not (= (_ bv7 8) (_ bv2 8))))
(assert (not (= (_ bv7 8) (_ bv4 8))))
(assert (not (= (_ bv7 8) x78)))
(assert (not (= (_ bv1 8) (_ bv6 8))))
(assert (not (= (_ bv1 8) x75)))
(assert (not (= (_ bv1 8) (_ bv2 8))))
(assert (not (= (_ bv1 8) (_ bv4 8))))
(assert (not (= (_ bv1 8) x78)))
(assert (not (= (_ bv6 8) x75)))
(assert (not (= (_ bv6 8) (_ bv2 8))))
(assert (not (= (_ bv6 8) (_ bv4 8))))
(assert (not (= (_ bv6 8) x78)))
(assert (not (= x75 (_ bv2 8))))
(assert (not (= x75 (_ bv4 8))))
(assert (not (= x75 x78)))
(assert (not (= (_ bv2 8) (_ bv4 8))))
(assert (not (= (_ bv2 8) x78)))
(assert (not (= (_ bv4 8) x78)))
(assert (not (= (_ bv6 8) x81)))
(assert (not (= (_ bv6 8) x82)))
(assert (not (= (_ bv6 8) x83)))
(assert (not (= (_ bv6 8) x84)))
(assert (not (= (_ bv6 8) x85)))
(assert (not (= (_ bv6 8) x86)))
(assert (not (= (_ bv6 8) x87)))
(assert (not (= (_ bv6 8) x88)))
(assert (not (= x81 x82)))
(assert (not (= x81 x83)))
(assert (not (= x81 x84)))
(assert (not (= x81 x85)))
(assert (not (= x81 x86)))
(assert (not (= x81 x87)))
(assert (not (= x81 x88)))
(assert (not (= x82 x83)))
(assert (not (= x82 x84)))
(assert (not (= x82 x85)))
(assert (not (= x82 x86)))
(assert (not (= x82 x87)))
(assert (not (= x82 x88)))
(assert (not (= x83 x84)))
(assert (not (= x83 x85)))
(assert (not (= x83 x86)))
(assert (not (= x83 x87)))
(assert (not (= x83 x88)))
(assert (not (= x84 x85)))
(assert (not (= x84 x86)))
(assert (not (= x84 x87)))
(assert (not (= x84 x88)))
(assert (not (= x85 x86)))
(assert (not (= x85 x87)))
(assert (not (= x85 x88)))
(assert (not (= x86 x87)))
(assert (not (= x86 x88)))
(assert (not (= x87 x88)))
(assert (not (= (_ bv9 8) x10)))
(assert (not (= (_ bv9 8) x20)))
(assert (not (= (_ bv9 8) (_ bv1 8))))
(assert (not (= (_ bv9 8) x40)))
(assert (not (= (_ bv9 8) x50)))
(assert (not (= (_ bv9 8) x60)))
(assert (not (= (_ bv9 8) x70)))
(assert (not (= (_ bv9 8) (_ bv6 8))))
(assert (not (= x10 x20)))
(assert (not (= x10 (_ bv1 8))))
(assert (not (= x10 x40)))
(assert (not (= x10 x50)))
(assert (not (= x10 x60)))
(assert (not (= x10 x70)))
(assert (not (= x10 (_ bv6 8))))
(assert (not (= x20 (_ bv1 8))))
(assert (not (= x20 x40)))
(assert (not (= x20 x50)))
(assert (not (= x20 x60)))
(assert (not (= x20 x70)))
(assert (not (= x20 (_ bv6 8))))
(assert (not (= (_ bv1 8) x40)))
(assert (not (= (_ bv1 8) x50)))
(assert (not (= (_ bv1 8) x60)))
(assert (not (= (_ bv1 8) x70)))
(assert (not (= (_ bv1 8) (_ bv6 8))))
(assert (not (= x40 x50)))
(assert (not (= x40 x60)))
(assert (not (= x40 x70)))
(assert (not (= x40 (_ bv6 8))))
(assert (not (= x50 x60)))
(assert (not (= x50 x70)))
(assert (not (= x50 (_ bv6 8))))
(assert (not (= x60 x70)))
(assert (not (= x60 (_ bv6 8))))
(assert (not (= x70 (_ bv6 8))))
(assert (not (= x01 (_ bv4 8))))
(assert (not (= x01 (_ bv7 8))))
(assert (not (= x01 x31)))
(assert (not (= x01 x41)))
(assert (not (= x01 (_ bv2 8))))
(assert (not (= x01 (_ bv1 8))))
(assert (not (= x01 x71)))
(assert (not (= x01 x81)))
(assert (not (= (_ bv4 8) (_ bv7 8))))
(assert (not (= (_ bv4 8) x31)))
(assert (not (= (_ bv4 8) x41)))
(assert (not (= (_ bv4 8) (_ bv2 8))))
(assert (not (= (_ bv4 8) (_ bv1 8))))
(assert (not (= (_ bv4 8) x71)))
(assert (not (= (_ bv4 8) x81)))
(assert (not (= (_ bv7 8) x31)))
(assert (not (= (_ bv7 8) x41)))
(assert (not (= (_ bv7 8) (_ bv2 8))))
(assert (not (= (_ bv7 8) (_ bv1 8))))
(assert (not (= (_ bv7 8) x71)))
(assert (not (= (_ bv7 8) x81)))
(assert (not (= x31 x41)))
(assert (not (= x31 (_ bv2 8))))
(assert (not (= x31 (_ bv1 8))))
(assert (not (= x31 x71)))
(assert (not (= x31 x81)))
(assert (not (= x41 (_ bv2 8))))
(assert (not (= x41 (_ bv1 8))))
(assert (not (= x41 x71)))
(assert (not (= x41 x81)))
(assert (not (= (_ bv2 8) (_ bv1 8))))
(assert (not (= (_ bv2 8) x71)))
(assert (not (= (_ bv2 8) x81)))
(assert (not (= (_ bv1 8) x71)))
(assert (not (= (_ bv1 8) x81)))
(assert (not (= x71 x81)))
(assert (not (= (_ bv8 8) (_ bv5 8))))
(assert (not (= (_ bv8 8) x22)))
(assert (not (= (_ bv8 8) (_ bv6 8))))
(assert (not (= (_ bv8 8) x42)))
(assert (not (= (_ bv8 8) (_ bv9 8))))
(assert (not (= (_ bv8 8) x62)))
(assert (not (= (_ bv8 8) (_ bv7 8))))
(assert (not (= (_ bv8 8) x82)))
(assert (not (= (_ bv5 8) x22)))
(assert (not (= (_ bv5 8) (_ bv6 8))))
(assert (not (= (_ bv5 8) x42)))
(assert (not (= (_ bv5 8) (_ bv9 8))))
(assert (not (= (_ bv5 8) x62)))
(assert (not (= (_ bv5 8) (_ bv7 8))))
(assert (not (= (_ bv5 8) x82)))
(assert (not (= x22 (_ bv6 8))))
(assert (not (= x22 x42)))
(assert (not (= x22 (_ bv9 8))))
(assert (not (= x22 x62)))
(assert (not (= x22 (_ bv7 8))))
(assert (not (= x22 x82)))
(assert (not (= (_ bv6 8) x42)))
(assert (not (= (_ bv6 8) (_ bv9 8))))
(assert (not (= (_ bv6 8) x62)))
(assert (not (= (_ bv6 8) (_ bv7 8))))
(assert (not (= (_ bv6 8) x82)))
(assert (not (= x42 (_ bv9 8))))
(assert (not (= x42 x62)))
(assert (not (= x42 (_ bv7 8))))
(assert (not (= x42 x82)))
(assert (not (= (_ bv9 8) x62)))
(assert (not (= (_ bv9 8) (_ bv7 8))))
(assert (not (= (_ bv9 8) x82)))
(assert (not (= x62 (_ bv7 8))))
(assert (not (= x62 x82)))
(assert (not (= (_ bv7 8) x82)))
(assert (not (= x03 x13)))
(assert (not (= x03 (_ bv3 8))))
(assert (not (= x03 (_ bv7 8))))
(assert (not (= x03 x43)))
(assert (not (= x03 x53)))
(assert (not (= x03 (_ bv2 8))))
(assert (not (= x03 (_ bv1 8))))
(assert (not (= x03 x83)))
(assert (not (= x13 (_ bv3 8))))
(assert (not (= x13 (_ bv7 8))))
(assert (not (= x13 x43)))
(assert (not (= x13 x53)))
(assert (not (= x13 (_ bv2 8))))
(assert (not (= x13 (_ bv1 8))))
(assert (not (= x13 x83)))
(assert (not (= (_ bv3 8) (_ bv7 8))))
(assert (not (= (_ bv3 8) x43)))
(assert (not (= (_ bv3 8) x53)))
(assert (not (= (_ bv3 8) (_ bv2 8))))
(assert (not (= (_ bv3 8) (_ bv1 8))))
(assert (not (= (_ bv3 8) x83)))
(assert (not (= (_ bv7 8) x43)))
(assert (not (= (_ bv7 8) x53)))
(assert (not (= (_ bv7 8) (_ bv2 8))))
(assert (not (= (_ bv7 8) (_ bv1 8))))
(assert (not (= (_ bv7 8) x83)))
(assert (not (= x43 x53)))
(assert (not (= x43 (_ bv2 8))))
(assert (not (= x43 (_ bv1 8))))
(assert (not (= x43 x83)))
(assert (not (= x53 (_ bv2 8))))
(assert (not (= x53 (_ bv1 8))))
(assert (not (= x53 x83)))
(assert (not (= (_ bv2 8) (_ bv1 8))))
(assert (not (= (_ bv2 8) x83)))
(assert (not (= (_ bv1 8) x83)))
(assert (not (= x04 (_ bv2 8))))
(assert (not (= x04 (_ bv8 8))))
(assert (not (= x04 x34)))
(assert (not (= x04 (_ bv5 8))))
(assert (not (= x04 x54)))
(assert (not (= x04 x64)))
(assert (not (= x04 (_ bv6 8))))
(assert (not (= x04 x84)))
(assert (not (= (_ bv2 8) (_ bv8 8))))
(assert (not (= (_ bv2 8) x34)))
(assert (not (= (_ bv2 8) (_ bv5 8))))
(assert (not (= (_ bv2 8) x54)))
(assert (not (= (_ bv2 8) x64)))
(assert (not (= (_ bv2 8) (_ bv6 8))))
(assert (not (= (_ bv2 8) x84)))
(assert (not (= (_ bv8 8) x34)))
(assert (not (= (_ bv8 8) (_ bv5 8))))
(assert (not (= (_ bv8 8) x54)))
(assert (not (= (_ bv8 8) x64)))
(assert (not (= (_ bv8 8) (_ bv6 8))))
(assert (not (= (_ bv8 8) x84)))
(assert (not (= x34 (_ bv5 8))))
(assert (not (= x34 x54)))
(assert (not (= x34 x64)))
(assert (not (= x34 (_ bv6 8))))
(assert (not (= x34 x84)))
(assert (not (= (_ bv5 8) x54)))
(assert (not (= (_ bv5 8) x64)))
(assert (not (= (_ bv5 8) (_ bv6 8))))
(assert (not (= (_ bv5 8) x84)))
(assert (not (= x54 x64)))
(assert (not (= x54 (_ bv6 8))))
(assert (not (= x54 x84)))
(assert (not (= x64 (_ bv6 8))))
(assert (not (= x64 x84)))
(assert (not (= (_ bv6 8) x84)))
(assert (not (= x05 x15)))
(assert (not (= x05 x25)))
(assert (not (= x05 (_ bv9 8))))
(assert (not (= x05 x45)))
(assert (not (= x05 (_ bv3 8))))
(assert (not (= x05 (_ bv7 8))))
(assert (not (= x05 x75)))
(assert (not (= x05 x85)))
(assert (not (= x15 x25)))
(assert (not (= x15 (_ bv9 8))))
(assert (not (= x15 x45)))
(assert (not (= x15 (_ bv3 8))))
(assert (not (= x15 (_ bv7 8))))
(assert (not (= x15 x75)))
(assert (not (= x15 x85)))
(assert (not (= x25 (_ bv9 8))))
(assert (not (= x25 x45)))
(assert (not (= x25 (_ bv3 8))))
(assert (not (= x25 (_ bv7 8))))
(assert (not (= x25 x75)))
(assert (not (= x25 x85)))
(assert (not (= (_ bv9 8) x45)))
(assert (not (= (_ bv9 8) (_ bv3 8))))
(assert (not (= (_ bv9 8) (_ bv7 8))))
(assert (not (= (_ bv9 8) x75)))
(assert (not (= (_ bv9 8) x85)))
(assert (not (= x45 (_ bv3 8))))
(assert (not (= x45 (_ bv7 8))))
(assert (not (= x45 x75)))
(assert (not (= x45 x85)))
(assert (not (= (_ bv3 8) (_ bv7 8))))
(assert (not (= (_ bv3 8) x75)))
(assert (not (= (_ bv3 8) x85)))
(assert (not (= (_ bv7 8) x75)))
(assert (not (= (_ bv7 8) x85)))
(assert (not (= x75 x85)))
(assert (not (= (_ bv1 8) x16)))
(assert (not (= (_ bv1 8) x26)))
(assert (not (= (_ bv1 8) x36)))
(assert (not (= (_ bv1 8) x46)))
(assert (not (= (_ bv1 8) (_ bv4 8))))
(assert (not (= (_ bv1 8) (_ bv6 8))))
(assert (not (= (_ bv1 8) (_ bv2 8))))
(assert (not (= (_ bv1 8) x86)))
(assert (not (= x16 x26)))
(assert (not (= x16 x36)))
(assert (not (= x16 x46)))
(assert (not (= x16 (_ bv4 8))))
(assert (not (= x16 (_ bv6 8))))
(assert (not (= x16 (_ bv2 8))))
(assert (not (= x16 x86)))
(assert (not (= x26 x36)))
(assert (not (= x26 x46)))
(assert (not (= x26 (_ bv4 8))))
(assert (not (= x26 (_ bv6 8))))
(assert (not (= x26 (_ bv2 8))))
(assert (not (= x26 x86)))
(assert (not (= x36 x46)))
(assert (not (= x36 (_ bv4 8))))
(assert (not (= x36 (_ bv6 8))))
(assert (not (= x36 (_ bv2 8))))
(assert (not (= x36 x86)))
(assert (not (= x46 (_ bv4 8))))
(assert (not (= x46 (_ bv6 8))))
(assert (not (= x46 (_ bv2 8))))
(assert (not (= x46 x86)))
(assert (not (= (_ bv4 8) (_ bv6 8))))
(assert (not (= (_ bv4 8) (_ bv2 8))))
(assert (not (= (_ bv4 8) x86)))
(assert (not (= (_ bv6 8) (_ bv2 8))))
(assert (not (= (_ bv6 8) x86)))
(assert (not (= (_ bv2 8) x86)))
(assert (not (= x07 x17)))
(assert (not (= x07 (_ bv9 8))))
(assert (not (= x07 (_ bv8 8))))
(assert (not (= x07 (_ bv7 8))))
(assert (not (= x07 (_ bv5 8))))
(assert (not (= x07 x67)))
(assert (not (= x07 (_ bv4 8))))
(assert (not (= x07 x87)))
(assert (not (= x17 (_ bv9 8))))
(assert (not (= x17 (_ bv8 8))))
(assert (not (= x17 (_ bv7 8))))
(assert (not (= x17 (_ bv5 8))))
(assert (not (= x17 x67)))
(assert (not (= x17 (_ bv4 8))))
(assert (not (= x17 x87)))
(assert (not (= (_ bv9 8) (_ bv8 8))))
(assert (not (= (_ bv9 8) (_ bv7 8))))
(assert (not (= (_ bv9 8) (_ bv5 8))))
(assert (not (= (_ bv9 8) x67)))
(assert (not (= (_ bv9 8) (_ bv4 8))))
(assert (not (= (_ bv9 8) x87)))
(assert (not (= (_ bv8 8) (_ bv7 8))))
(assert (not (= (_ bv8 8) (_ bv5 8))))
(assert (not (= (_ bv8 8) x67)))
(assert (not (= (_ bv8 8) (_ bv4 8))))
(assert (not (= (_ bv8 8) x87)))
(assert (not (= (_ bv7 8) (_ bv5 8))))
(assert (not (= (_ bv7 8) x67)))
(assert (not (= (_ bv7 8) (_ bv4 8))))
(assert (not (= (_ bv7 8) x87)))
(assert (not (= (_ bv5 8) x67)))
(assert (not (= (_ bv5 8) (_ bv4 8))))
(assert (not (= (_ bv5 8) x87)))
(assert (not (= x67 (_ bv4 8))))
(assert (not (= x67 x87)))
(assert (not (= (_ bv4 8) x87)))
(assert (not (= (_ bv3 8) x18)))
(assert (not (= (_ bv3 8) x28)))
(assert (not (= (_ bv3 8) x38)))
(assert (not (= (_ bv3 8) x48)))
(assert (not (= (_ bv3 8) x58)))
(assert (not (= (_ bv3 8) (_ bv8 8))))
(assert (not (= (_ bv3 8) x78)))
(assert (not (= (_ bv3 8) x88)))
(assert (not (= x18 x28)))
(assert (not (= x18 x38)))
(assert (not (= x18 x48)))
(assert (not (= x18 x58)))
(assert (not (= x18 (_ bv8 8))))
(assert (not (= x18 x78)))
(assert (not (= x18 x88)))
(assert (not (= x28 x38)))
(assert (not (= x28 x48)))
(assert (not (= x28 x58)))
(assert (not (= x28 (_ bv8 8))))
(assert (not (= x28 x78)))
(assert (not (= x28 x88)))
(assert (not (= x38 x48)))
(assert (not (= x38 x58)))
(assert (not (= x38 (_ bv8 8))))
(assert (not (= x38 x78)))
(assert (not (= x38 x88)))
(assert (not (= x48 x58)))
(assert (not (= x48 (_ bv8 8))))
(assert (not (= x48 x78)))
(assert (not (= x48 x88)))
(assert (not (= x58 (_ bv8 8))))
(assert (not (= x58 x78)))
(assert (not (= x58 x88)))
(assert (not (= (_ bv8 8) x78)))
(assert (not (= (_ bv8 8) x88)))
(assert (not (= x78 x88)))
(assert (not (= (_ bv9 8) x01)))
(assert (not (= (_ bv9 8) (_ bv8 8))))
(assert (not (= (_ bv9 8) x10)))
(assert (not (= (_ bv9 8) (_ bv4 8))))
(assert (not (= (_ bv9 8) (_ bv5 8))))
(assert (not (= (_ bv9 8) x20)))
(assert (not (= (_ bv9 8) (_ bv7 8))))
(assert (not (= (_ bv9 8) x22)))
(assert (not (= x01 (_ bv8 8))))
(assert (not (= x01 x10)))
(assert (not (= x01 (_ bv4 8))))
(assert (not (= x01 (_ bv5 8))))
(assert (not (= x01 x20)))
(assert (not (= x01 (_ bv7 8))))
(assert (not (= x01 x22)))
(assert (not (= (_ bv8 8) x10)))
(assert (not (= (_ bv8 8) (_ bv4 8))))
(assert (not (= (_ bv8 8) (_ bv5 8))))
(assert (not (= (_ bv8 8) x20)))
(assert (not (= (_ bv8 8) (_ bv7 8))))
(assert (not (= (_ bv8 8) x22)))
(assert (not (= x10 (_ bv4 8))))
(assert (not (= x10 (_ bv5 8))))
(assert (not (= x10 x20)))
(assert (not (= x10 (_ bv7 8))))
(assert (not (= x10 x22)))
(assert (not (= (_ bv4 8) (_ bv5 8))))
(assert (not (= (_ bv4 8) x20)))
(assert (not (= (_ bv4 8) (_ bv7 8))))
(assert (not (= (_ bv4 8) x22)))
(assert (not (= (_ bv5 8) x20)))
(assert (not (= (_ bv5 8) (_ bv7 8))))
(assert (not (= (_ bv5 8) x22)))
(assert (not (= x20 (_ bv7 8))))
(assert (not (= x20 x22)))
(assert (not (= (_ bv7 8) x22)))
(assert (not (= x03 x04)))
(assert (not (= x03 x05)))
(assert (not (= x03 x13)))
(assert (not (= x03 (_ bv2 8))))
(assert (not (= x03 x15)))
(assert (not (= x03 (_ bv3 8))))
(assert (not (= x03 (_ bv8 8))))
(assert (not (= x03 x25)))
(assert (not (= x04 x05)))
(assert (not (= x04 x13)))
(assert (not (= x04 (_ bv2 8))))
(assert (not (= x04 x15)))
(assert (not (= x04 (_ bv3 8))))
(assert (not (= x04 (_ bv8 8))))
(assert (not (= x04 x25)))
(assert (not (= x05 x13)))
(assert (not (= x05 (_ bv2 8))))
(assert (not (= x05 x15)))
(assert (not (= x05 (_ bv3 8))))
(assert (not (= x05 (_ bv8 8))))
(assert (not (= x05 x25)))
(assert (not (= x13 (_ bv2 8))))
(assert (not (= x13 x15)))
(assert (not (= x13 (_ bv3 8))))
(assert (not (= x13 (_ bv8 8))))
(assert (not (= x13 x25)))
(assert (not (= (_ bv2 8) x15)))
(assert (not (= (_ bv2 8) (_ bv3 8))))
(assert (not (= (_ bv2 8) (_ bv8 8))))
(assert (not (= (_ bv2 8) x25)))
(assert (not (= x15 (_ bv3 8))))
(assert (not (= x15 (_ bv8 8))))
(assert (not (= x15 x25)))
(assert (not (= (_ bv3 8) (_ bv8 8))))
(assert (not (= (_ bv3 8) x25)))
(assert (not (= (_ bv8 8) x25)))
(assert (not (= (_ bv1 8) x07)))
(assert (not (= (_ bv1 8) (_ bv3 8))))
(assert (not (= (_ bv1 8) x16)))
(assert (not (= (_ bv1 8) x17)))
(assert (not (= (_ bv1 8) x18)))
(assert (not (= (_ bv1 8) x26)))
(assert (not (= (_ bv1 8) (_ bv9 8))))
(assert (not (= (_ bv1 8) x28)))
(assert (not (= x07 (_ bv3 8))))
(assert (not (= x07 x16)))
(assert (not (= x07 x17)))
(assert (not (= x07 x18)))
(assert (not (= x07 x26)))
(assert (not (= x07 (_ bv9 8))))
(assert (not (= x07 x28)))
(assert (not (= (_ bv3 8) x16)))
(assert (not (= (_ bv3 8) x17)))
(assert (not (= (_ bv3 8) x18)))
(assert (not (= (_ bv3 8) x26)))
(assert (not (= (_ bv3 8) (_ bv9 8))))
(assert (not (= (_ bv3 8) x28)))
(assert (not (= x16 x17)))
(assert (not (= x16 x18)))
(assert (not (= x16 x26)))
(assert (not (= x16 (_ bv9 8))))
(assert (not (= x16 x28)))
(assert (not (= x17 x18)))
(assert (not (= x17 x26)))
(assert (not (= x17 (_ bv9 8))))
(assert (not (= x17 x28)))
(assert (not (= x18 x26)))
(assert (not (= x18 (_ bv9 8))))
(assert (not (= x18 x28)))
(assert (not (= x26 (_ bv9 8))))
(assert (not (= x26 x28)))
(assert (not (= (_ bv9 8) x28)))
(assert (not (= (_ bv1 8) x31)))
(assert (not (= (_ bv1 8) (_ bv6 8))))
(assert (not (= (_ bv1 8) x40)))
(assert (not (= (_ bv1 8) x41)))
(assert (not (= (_ bv1 8) x42)))
(assert (not (= (_ bv1 8) x50)))
(assert (not (= (_ bv1 8) (_ bv2 8))))
(assert (not (= (_ bv1 8) (_ bv9 8))))
(assert (not (= x31 (_ bv6 8))))
(assert (not (= x31 x40)))
(assert (not (= x31 x41)))
(assert (not (= x31 x42)))
(assert (not (= x31 x50)))
(assert (not (= x31 (_ bv2 8))))
(assert (not (= x31 (_ bv9 8))))
(assert (not (= (_ bv6 8) x40)))
(assert (not (= (_ bv6 8) x41)))
(assert (not (= (_ bv6 8) x42)))
(assert (not (= (_ bv6 8) x50)))
(assert (not (= (_ bv6 8) (_ bv2 8))))
(assert (not (= (_ bv6 8) (_ bv9 8))))
(assert (not (= x40 x41)))
(assert (not (= x40 x42)))
(assert (not (= x40 x50)))
(assert (not (= x40 (_ bv2 8))))
(assert (not (= x40 (_ bv9 8))))
(assert (not (= x41 x42)))
(assert (not (= x41 x50)))
(assert (not (= x41 (_ bv2 8))))
(assert (not (= x41 (_ bv9 8))))
(assert (not (= x42 x50)))
(assert (not (= x42 (_ bv2 8))))
(assert (not (= x42 (_ bv9 8))))
(assert (not (= x50 (_ bv2 8))))
(assert (not (= x50 (_ bv9 8))))
(assert (not (= (_ bv2 8) (_ bv9 8))))
(assert (not (= (_ bv7 8) x34)))
(assert (not (= (_ bv7 8) (_ bv9 8))))
(assert (not (= (_ bv7 8) x43)))
(assert (not (= (_ bv7 8) (_ bv5 8))))
(assert (not (= (_ bv7 8) x45)))
(assert (not (= (_ bv7 8) x53)))
(assert (not (= (_ bv7 8) x54)))
(assert (not (= (_ bv7 8) (_ bv3 8))))
(assert (not (= x34 (_ bv9 8))))
(assert (not (= x34 x43)))
(assert (not (= x34 (_ bv5 8))))
(assert (not (= x34 x45)))
(assert (not (= x34 x53)))
(assert (not (= x34 x54)))
(assert (not (= x34 (_ bv3 8))))
(assert (not (= (_ bv9 8) x43)))
(assert (not (= (_ bv9 8) (_ bv5 8))))
(assert (not (= (_ bv9 8) x45)))
(assert (not (= (_ bv9 8) x53)))
(assert (not (= (_ bv9 8) x54)))
(assert (not (= (_ bv9 8) (_ bv3 8))))
(assert (not (= x43 (_ bv5 8))))
(assert (not (= x43 x45)))
(assert (not (= x43 x53)))
(assert (not (= x43 x54)))
(assert (not (= x43 (_ bv3 8))))
(assert (not (= (_ bv5 8) x45)))
(assert (not (= (_ bv5 8) x53)))
(assert (not (= (_ bv5 8) x54)))
(assert (not (= (_ bv5 8) (_ bv3 8))))
(assert (not (= x45 x53)))
(assert (not (= x45 x54)))
(assert (not (= x45 (_ bv3 8))))
(assert (not (= x53 x54)))
(assert (not (= x53 (_ bv3 8))))
(assert (not (= x54 (_ bv3 8))))
(assert (not (= x36 (_ bv8 8))))
(assert (not (= x36 x38)))
(assert (not (= x36 x46)))
(assert (not (= x36 (_ bv7 8))))
(assert (not (= x36 x48)))
(assert (not (= x36 (_ bv4 8))))
(assert (not (= x36 (_ bv5 8))))
(assert (not (= x36 x58)))
(assert (not (= (_ bv8 8) x38)))
(assert (not (= (_ bv8 8) x46)))
(assert (not (= (_ bv8 8) (_ bv7 8))))
(assert (not (= (_ bv8 8) x48)))
(assert (not (= (_ bv8 8) (_ bv4 8))))
(assert (not (= (_ bv8 8) (_ bv5 8))))
(assert (not (= (_ bv8 8) x58)))
(assert (not (= x38 x46)))
(assert (not (= x38 (_ bv7 8))))
(assert (not (= x38 x48)))
(assert (not (= x38 (_ bv4 8))))
(assert (not (= x38 (_ bv5 8))))
(assert (not (= x38 x58)))
(assert (not (= x46 (_ bv7 8))))
(assert (not (= x46 x48)))
(assert (not (= x46 (_ bv4 8))))
(assert (not (= x46 (_ bv5 8))))
(assert (not (= x46 x58)))
(assert (not (= (_ bv7 8) x48)))
(assert (not (= (_ bv7 8) (_ bv4 8))))
(assert (not (= (_ bv7 8) (_ bv5 8))))
(assert (not (= (_ bv7 8) x58)))
(assert (not (= x48 (_ bv4 8))))
(assert (not (= x48 (_ bv5 8))))
(assert (not (= x48 x58)))
(assert (not (= (_ bv4 8) (_ bv5 8))))
(assert (not (= (_ bv4 8) x58)))
(assert (not (= (_ bv5 8) x58)))
(assert (not (= x60 (_ bv1 8))))
(assert (not (= x60 x62)))
(assert (not (= x60 x70)))
(assert (not (= x60 x71)))
(assert (not (= x60 (_ bv7 8))))
(assert (not (= x60 (_ bv6 8))))
(assert (not (= x60 x81)))
(assert (not (= x60 x82)))
(assert (not (= (_ bv1 8) x62)))
(assert (not (= (_ bv1 8) x70)))
(assert (not (= (_ bv1 8) x71)))
(assert (not (= (_ bv1 8) (_ bv7 8))))
(assert (not (= (_ bv1 8) (_ bv6 8))))
(assert (not (= (_ bv1 8) x81)))
(assert (not (= (_ bv1 8) x82)))
(assert (not (= x62 x70)))
(assert (not (= x62 x71)))
(assert (not (= x62 (_ bv7 8))))
(assert (not (= x62 (_ bv6 8))))
(assert (not (= x62 x81)))
(assert (not (= x62 x82)))
(assert (not (= x70 x71)))
(assert (not (= x70 (_ bv7 8))))
(assert (not (= x70 (_ bv6 8))))
(assert (not (= x70 x81)))
(assert (not (= x70 x82)))
(assert (not (= x71 (_ bv7 8))))
(assert (not (= x71 (_ bv6 8))))
(assert (not (= x71 x81)))
(assert (not (= x71 x82)))
(assert (not (= (_ bv7 8) (_ bv6 8))))
(assert (not (= (_ bv7 8) x81)))
(assert (not (= (_ bv7 8) x82)))
(assert (not (= (_ bv6 8) x81)))
(assert (not (= (_ bv6 8) x82)))
(assert (not (= x81 x82)))
(assert (not (= (_ bv2 8) x64)))
(assert (not (= (_ bv2 8) (_ bv7 8))))
(assert (not (= (_ bv2 8) (_ bv1 8))))
(assert (not (= (_ bv2 8) (_ bv6 8))))
(assert (not (= (_ bv2 8) x75)))
(assert (not (= (_ bv2 8) x83)))
(assert (not (= (_ bv2 8) x84)))
(assert (not (= (_ bv2 8) x85)))
(assert (not (= x64 (_ bv7 8))))
(assert (not (= x64 (_ bv1 8))))
(assert (not (= x64 (_ bv6 8))))
(assert (not (= x64 x75)))
(assert (not (= x64 x83)))
(assert (not (= x64 x84)))
(assert (not (= x64 x85)))
(assert (not (= (_ bv7 8) (_ bv1 8))))
(assert (not (= (_ bv7 8) (_ bv6 8))))
(assert (not (= (_ bv7 8) x75)))
(assert (not (= (_ bv7 8) x83)))
(assert (not (= (_ bv7 8) x84)))
(assert (not (= (_ bv7 8) x85)))
(assert (not (= (_ bv1 8) (_ bv6 8))))
(assert (not (= (_ bv1 8) x75)))
(assert (not (= (_ bv1 8) x83)))
(assert (not (= (_ bv1 8) x84)))
(assert (not (= (_ bv1 8) x85)))
(assert (not (= (_ bv6 8) x75)))
(assert (not (= (_ bv6 8) x83)))
(assert (not (= (_ bv6 8) x84)))
(assert (not (= (_ bv6 8) x85)))
(assert (not (= x75 x83)))
(assert (not (= x75 x84)))
(assert (not (= x75 x85)))
(assert (not (= x83 x84)))
(assert (not (= x83 x85)))
(assert (not (= x84 x85)))
(assert (not (= (_ bv6 8) x67)))
(assert (not (= (_ bv6 8) (_ bv8 8))))
(assert (not (= (_ bv6 8) (_ bv2 8))))
(assert (not (= (_ bv6 8) (_ bv4 8))))
(assert (not (= (_ bv6 8) x78)))
(assert (not (= (_ bv6 8) x86)))
(assert (not (= (_ bv6 8) x87)))
(assert (not (= (_ bv6 8) x88)))
(assert (not (= x67 (_ bv8 8))))
(assert (not (= x67 (_ bv2 8))))
(assert (not (= x67 (_ bv4 8))))
(assert (not (= x67 x78)))
(assert (not (= x67 x86)))
(assert (not (= x67 x87)))
(assert (not (= x67 x88)))
(assert (not (= (_ bv8 8) (_ bv2 8))))
(assert (not (= (_ bv8 8) (_ bv4 8))))
(assert (not (= (_ bv8 8) x78)))
(assert (not (= (_ bv8 8) x86)))
(assert (not (= (_ bv8 8) x87)))
(assert (not (= (_ bv8 8) x88)))
(assert (not (= (_ bv2 8) (_ bv4 8))))
(assert (not (= (_ bv2 8) x78)))
(assert (not (= (_ bv2 8) x86)))
(assert (not (= (_ bv2 8) x87)))
(assert (not (= (_ bv2 8) x88)))
(assert (not (= (_ bv4 8) x78)))
(assert (not (= (_ bv4 8) x86)))
(assert (not (= (_ bv4 8) x87)))
(assert (not (= (_ bv4 8) x88)))
(assert (not (= x78 x86)))
(assert (not (= x78 x87)))
(assert (not (= x78 x88)))
(assert (not (= x86 x87)))
(assert (not (= x86 x88)))
(assert (not (= x87 x88)))
(check-sat)
(exit)
